1,5
1,8
1,15
2,3
2,5
2,7
2,8
11,2
14,2
17,2
3,4
3,6
3,7
3,9    
11,3
14,3
15,3
4,6
4,8
4,9
10,4
11,4
13,4
6,8
6,9
11,6
12,6
13,6
14,6
7,8
7,9
10,7
11,7
14,7
8,9
10,8
11,8
12,8
13,8
14,8
10,9
11,9
12,9
13,9
14,9
10,12
10,15
11,14
12,13
12,15
12,17
13,14
1,2,3 
1,2,4
1,2,6
1,2,7
1,10,2
1,11,2
1,12,2
1,14,2
1,15,2
1,10,3
1,11,3
1,12,3
1,14,3
1,4,7
1,12,4
1,14,4
1,6,7
1,10,6
1,12,7
1,14,7
1,10,11
1,10,12
1,10,14
1,11,12
1,11,14
1,11,17
1,12,14
15,6,7
